
Gurobi 8.1.1 (linux64, Python) logging started Fri Oct 25 11:12:13 2019

Academic license - for non-commercial use only

Gurobi 8.1.1 (linux64, Python) logging started Fri Oct 25 11:12:17 2019

Academic license - for non-commercial use only

Gurobi 8.1.1 (linux64, Python) logging started Fri Oct 25 11:17:18 2019

Academic license - for non-commercial use only

Gurobi 8.1.1 (linux64, Python) logging started Fri Oct 25 11:17:29 2019

Academic license - for non-commercial use only

Gurobi 8.1.1 (linux64, Python) logging started Fri Oct 25 11:17:44 2019

Academic license - for non-commercial use only

Gurobi 8.1.1 (linux64, Python) logging started Fri Oct 25 11:19:24 2019

Academic license - for non-commercial use only

Gurobi 8.1.1 (linux64, Python) logging started Fri Oct 25 11:19:37 2019

Academic license - for non-commercial use only

Gurobi 8.1.1 (linux64, Python) logging started Fri Oct 25 11:20:04 2019

Academic license - for non-commercial use only

Gurobi 8.1.1 (linux64, Python) logging started Fri Oct 25 11:20:18 2019

Academic license - for non-commercial use only

Gurobi 8.1.1 (linux64, Python) logging started Fri Oct 25 11:20:46 2019

Academic license - for non-commercial use only

Gurobi 8.1.1 (linux64, Python) logging started Fri Oct 25 11:23:47 2019

Academic license - for non-commercial use only

Gurobi 8.1.1 (linux64, Python) logging started Fri Oct 25 11:24:17 2019

Academic license - for non-commercial use only

Gurobi 8.1.1 (linux64, Python) logging started Fri Oct 25 11:26:03 2019

Academic license - for non-commercial use only

Gurobi 8.1.1 (linux64, Python) logging started Fri Oct 25 11:26:13 2019

Academic license - for non-commercial use only

Gurobi 8.1.1 (linux64, Python) logging started Fri Oct 25 11:26:25 2019

Academic license - for non-commercial use only

Gurobi 8.1.1 (linux64, Python) logging started Fri Oct 25 11:26:28 2019

Academic license - for non-commercial use only

Gurobi 8.1.1 (linux64, Python) logging started Fri Oct 25 11:26:31 2019

Academic license - for non-commercial use only

Gurobi 8.1.1 (linux64, Python) logging started Fri Oct 25 11:43:05 2019

Academic license - for non-commercial use only

Gurobi 8.1.1 (linux64, Python) logging started Fri Oct 25 11:44:19 2019

Academic license - for non-commercial use only

Gurobi 8.1.1 (linux64, Python) logging started Fri Oct 25 11:44:57 2019

Academic license - for non-commercial use only

Gurobi 8.1.1 (linux64, Python) logging started Fri Oct 25 11:45:32 2019

Academic license - for non-commercial use only

Gurobi 8.1.1 (linux64, Python) logging started Fri Oct 25 11:49:05 2019

Academic license - for non-commercial use only

Gurobi 8.1.1 (linux64, Python) logging started Fri Oct 25 11:50:05 2019

Academic license - for non-commercial use only

Gurobi 8.1.1 (linux64, Python) logging started Fri Oct 25 11:50:42 2019

Academic license - for non-commercial use only

Gurobi 8.1.1 (linux64, Python) logging started Fri Oct 25 11:50:49 2019

Academic license - for non-commercial use only

Gurobi 8.1.1 (linux64, Python) logging started Fri Oct 25 11:51:41 2019

Academic license - for non-commercial use only

Gurobi 8.1.1 (linux64, Python) logging started Fri Oct 25 14:33:53 2019

Academic license - for non-commercial use only

Gurobi 8.1.1 (linux64, Python) logging started Fri Oct 25 14:34:18 2019

Academic license - for non-commercial use only

Gurobi 8.1.1 (linux64, Python) logging started Fri Oct 25 14:38:44 2019

Academic license - for non-commercial use only

Gurobi 8.1.1 (linux64, Python) logging started Fri Oct 25 14:39:03 2019

Academic license - for non-commercial use only

Gurobi 8.1.1 (linux64, Python) logging started Fri Oct 25 14:40:34 2019

Academic license - for non-commercial use only

Gurobi 8.1.1 (linux64, Python) logging started Fri Oct 25 14:40:48 2019

Academic license - for non-commercial use only

Gurobi 8.1.1 (linux64, Python) logging started Fri Oct 25 14:41:21 2019

Academic license - for non-commercial use only

Gurobi 8.1.1 (linux64, Python) logging started Fri Oct 25 14:41:46 2019

Academic license - for non-commercial use only
Warning: Numeric variable name in LP file ('4abz_symport_trans') - often the result
         of a constant term in the left-hand side of a constraint.

Read LP format model from file /tmp/tmpb7tg4_i0.lp
Reading time = 0.00 seconds
: 542 rows, 1308 columns, 5686 nonzeros

Gurobi 8.1.1 (linux64, Python) logging started Fri Oct 25 14:42:08 2019

Academic license - for non-commercial use only

Gurobi 8.1.1 (linux64, Python) logging started Fri Oct 25 14:42:30 2019

Academic license - for non-commercial use only
Warning: Numeric variable name in LP file ('4abz_symport_trans') - often the result
         of a constant term in the left-hand side of a constraint.

Read LP format model from file /tmp/tmpxeishi0o.lp
Reading time = 0.00 seconds
: 542 rows, 1308 columns, 5686 nonzeros

Gurobi 8.1.1 (linux64, Python) logging started Fri Oct 25 14:42:43 2019

Academic license - for non-commercial use only
Warning: Numeric variable name in LP file ('4abz_symport_trans') - often the result
         of a constant term in the left-hand side of a constraint.

Read LP format model from file /tmp/tmp62so9wlo.lp
Reading time = 0.00 seconds
: 542 rows, 1308 columns, 5686 nonzeros
Warning: Numeric variable name in LP file ('4abz_symport_trans') - often the result
         of a constant term in the left-hand side of a constraint.

Read LP format model from file /tmp/tmp28k6xypu.lp
Reading time = 0.00 seconds
: 542 rows, 1308 columns, 5686 nonzeros
Warning: Numeric variable name in LP file ('4abz_symport_trans') - often the result
         of a constant term in the left-hand side of a constraint.

Read LP format model from file /tmp/tmprway3k0j.lp
Reading time = 0.00 seconds
: 542 rows, 1308 columns, 5686 nonzeros
Warning: Numeric variable name in LP file ('4abz_symport_trans') - often the result
         of a constant term in the left-hand side of a constraint.

Read LP format model from file /tmp/tmpd1c9tcqv.lp
Reading time = 0.00 seconds
: 542 rows, 1308 columns, 5686 nonzeros
Warning: Numeric variable name in LP file ('4abz_symport_trans') - often the result
         of a constant term in the left-hand side of a constraint.

Read LP format model from file /tmp/tmprq_p8qk0.lp
Reading time = 0.00 seconds
: 542 rows, 1308 columns, 5686 nonzeros
Warning: Numeric variable name in LP file ('4abz_symport_trans') - often the result
         of a constant term in the left-hand side of a constraint.

Read LP format model from file /tmp/tmpwsbbzhib.lp
Reading time = 0.00 seconds
: 542 rows, 1308 columns, 5686 nonzeros
Warning: Numeric variable name in LP file ('4abz_symport_trans') - often the result
         of a constant term in the left-hand side of a constraint.

Read LP format model from file /tmp/tmp6ci79rdn.lp
Reading time = 0.00 seconds
: 542 rows, 1308 columns, 5686 nonzeros
Warning: Numeric variable name in LP file ('4abz_symport_trans') - often the result
         of a constant term in the left-hand side of a constraint.

Read LP format model from file /tmp/tmppg9ul366.lp
Reading time = 0.00 seconds
: 542 rows, 1308 columns, 5686 nonzeros
Warning: Numeric variable name in LP file ('4abz_symport_trans') - often the result
         of a constant term in the left-hand side of a constraint.

Read LP format model from file /tmp/tmpajwau6zd.lp
Reading time = 0.00 seconds
: 542 rows, 1308 columns, 5686 nonzeros
Warning: Numeric variable name in LP file ('4abz_symport_trans') - often the result
         of a constant term in the left-hand side of a constraint.

Read LP format model from file /tmp/tmpubhrhijg.lp
Reading time = 0.00 seconds
: 542 rows, 1308 columns, 5686 nonzeros
Warning: Numeric variable name in LP file ('4abz_symport_trans') - often the result
         of a constant term in the left-hand side of a constraint.

Read LP format model from file /tmp/tmphaget094.lp
Reading time = 0.00 seconds
: 542 rows, 1308 columns, 5686 nonzeros
Warning: Numeric variable name in LP file ('4abz_symport_trans') - often the result
         of a constant term in the left-hand side of a constraint.

Read LP format model from file /tmp/tmpsxjank3l.lp
Reading time = 0.00 seconds
: 542 rows, 1308 columns, 5686 nonzeros
Warning: Numeric variable name in LP file ('4abz_symport_trans') - often the result
         of a constant term in the left-hand side of a constraint.

Read LP format model from file /tmp/tmpuq8mfhmw.lp
Reading time = 0.00 seconds
: 542 rows, 1308 columns, 5686 nonzeros
Warning: Numeric variable name in LP file ('4abz_symport_trans') - often the result
         of a constant term in the left-hand side of a constraint.

Read LP format model from file /tmp/tmp6e5ow406.lp
Reading time = 0.00 seconds
: 542 rows, 1308 columns, 5686 nonzeros
Warning: Numeric variable name in LP file ('4abz_symport_trans') - often the result
         of a constant term in the left-hand side of a constraint.

Read LP format model from file /tmp/tmpc5m42_wl.lp
Reading time = 0.00 seconds
: 542 rows, 1308 columns, 5686 nonzeros
Warning: Numeric variable name in LP file ('4abz_symport_trans') - often the result
         of a constant term in the left-hand side of a constraint.

Read LP format model from file /tmp/tmppxbffp6w.lp
Reading time = 0.00 seconds
: 542 rows, 1308 columns, 5686 nonzeros
Warning: Numeric variable name in LP file ('4abz_symport_trans') - often the result
         of a constant term in the left-hand side of a constraint.

Read LP format model from file /tmp/tmp3rowswq8.lp
Reading time = 0.00 seconds
: 542 rows, 1308 columns, 5686 nonzeros
Warning: Numeric variable name in LP file ('4abz_symport_trans') - often the result
         of a constant term in the left-hand side of a constraint.

Read LP format model from file /tmp/tmp3vr9b927.lp
Reading time = 0.00 seconds
: 542 rows, 1308 columns, 5686 nonzeros
Warning: Numeric variable name in LP file ('4abz_symport_trans') - often the result
         of a constant term in the left-hand side of a constraint.

Read LP format model from file /tmp/tmp5paxc1y6.lp
Reading time = 0.00 seconds
: 542 rows, 1308 columns, 5686 nonzeros
Warning: Numeric variable name in LP file ('4abz_symport_trans') - often the result
         of a constant term in the left-hand side of a constraint.

Read LP format model from file /tmp/tmpxhg3xboo.lp
Reading time = 0.00 seconds
: 542 rows, 1308 columns, 5686 nonzeros
Warning: Numeric variable name in LP file ('4abz_symport_trans') - often the result
         of a constant term in the left-hand side of a constraint.

Read LP format model from file /tmp/tmpbfways_v.lp
Reading time = 0.00 seconds
: 542 rows, 1308 columns, 5686 nonzeros
Warning: Numeric variable name in LP file ('4abz_symport_trans') - often the result
         of a constant term in the left-hand side of a constraint.

Read LP format model from file /tmp/tmpmmoyclqs.lp
Reading time = 0.00 seconds
: 542 rows, 1308 columns, 5686 nonzeros
Warning: Numeric variable name in LP file ('4abz_symport_trans') - often the result
         of a constant term in the left-hand side of a constraint.

Read LP format model from file /tmp/tmpnginnn7a.lp
Reading time = 0.00 seconds
: 542 rows, 1308 columns, 5686 nonzeros
Warning: Numeric variable name in LP file ('4abz_symport_trans') - often the result
         of a constant term in the left-hand side of a constraint.

Read LP format model from file /tmp/tmpyayouhil.lp
Reading time = 0.00 seconds
: 542 rows, 1308 columns, 5686 nonzeros
Warning: Numeric variable name in LP file ('4abz_symport_trans') - often the result
         of a constant term in the left-hand side of a constraint.

Read LP format model from file /tmp/tmpb_358gfn.lp
Reading time = 0.00 seconds
: 542 rows, 1308 columns, 5686 nonzeros
Warning: Numeric variable name in LP file ('4abz_symport_trans') - often the result
         of a constant term in the left-hand side of a constraint.

Read LP format model from file /tmp/tmpnpwgzow5.lp
Reading time = 0.00 seconds
: 542 rows, 1308 columns, 5686 nonzeros
Warning: Numeric variable name in LP file ('4abz_symport_trans') - often the result
         of a constant term in the left-hand side of a constraint.

Read LP format model from file /tmp/tmphmmnefby.lp
Reading time = 0.00 seconds
: 542 rows, 1308 columns, 5686 nonzeros
Warning: Numeric variable name in LP file ('4abz_symport_trans') - often the result
         of a constant term in the left-hand side of a constraint.

Read LP format model from file /tmp/tmp9331mssn.lp
Reading time = 0.00 seconds
: 542 rows, 1308 columns, 5686 nonzeros
Warning: Numeric variable name in LP file ('4abz_symport_trans') - often the result
         of a constant term in the left-hand side of a constraint.

Read LP format model from file /tmp/tmppe8oznpn.lp
Reading time = 0.00 seconds
: 542 rows, 1308 columns, 5686 nonzeros
Warning: Numeric variable name in LP file ('4abz_symport_trans') - often the result
         of a constant term in the left-hand side of a constraint.

Read LP format model from file /tmp/tmpfos7oyjy.lp
Reading time = 0.00 seconds
: 542 rows, 1308 columns, 5686 nonzeros
Warning: Numeric variable name in LP file ('4abz_symport_trans') - often the result
         of a constant term in the left-hand side of a constraint.

Read LP format model from file /tmp/tmpo64wokhm.lp
Reading time = 0.00 seconds
: 542 rows, 1308 columns, 5686 nonzeros
Warning: Numeric variable name in LP file ('4abz_symport_trans') - often the result
         of a constant term in the left-hand side of a constraint.

Read LP format model from file /tmp/tmp54qrpjc8.lp
Reading time = 0.00 seconds
: 542 rows, 1308 columns, 5686 nonzeros
Warning: Numeric variable name in LP file ('4abz_symport_trans') - often the result
         of a constant term in the left-hand side of a constraint.

Read LP format model from file /tmp/tmpgj02zq7j.lp
Reading time = 0.00 seconds
: 542 rows, 1308 columns, 5686 nonzeros
Warning: Numeric variable name in LP file ('4abz_symport_trans') - often the result
         of a constant term in the left-hand side of a constraint.

Read LP format model from file /tmp/tmph8lm5m_s.lp
Reading time = 0.00 seconds
: 542 rows, 1308 columns, 5686 nonzeros
Warning: Numeric variable name in LP file ('4abz_symport_trans') - often the result
         of a constant term in the left-hand side of a constraint.

Read LP format model from file /tmp/tmphe6mdeb0.lp
Reading time = 0.00 seconds
: 542 rows, 1308 columns, 5686 nonzeros
Warning: Numeric variable name in LP file ('4abz_symport_trans') - often the result
         of a constant term in the left-hand side of a constraint.

Read LP format model from file /tmp/tmp5czh3svu.lp
Reading time = 0.00 seconds
: 542 rows, 1308 columns, 5686 nonzeros
Warning: Numeric variable name in LP file ('4abz_symport_trans') - often the result
         of a constant term in the left-hand side of a constraint.

Read LP format model from file /tmp/tmp0_7il1dl.lp
Reading time = 0.00 seconds
: 542 rows, 1308 columns, 5686 nonzeros
Warning: Numeric variable name in LP file ('4abz_symport_trans') - often the result
         of a constant term in the left-hand side of a constraint.

Read LP format model from file /tmp/tmpw8prmhbz.lp
Reading time = 0.00 seconds
: 542 rows, 1308 columns, 5686 nonzeros
Warning: Numeric variable name in LP file ('4abz_symport_trans') - often the result
         of a constant term in the left-hand side of a constraint.

Read LP format model from file /tmp/tmppel3r889.lp
Reading time = 0.00 seconds
: 542 rows, 1308 columns, 5686 nonzeros
Warning: Numeric variable name in LP file ('4abz_symport_trans') - often the result
         of a constant term in the left-hand side of a constraint.

Read LP format model from file /tmp/tmpsteego8b.lp
Reading time = 0.00 seconds
: 542 rows, 1308 columns, 5686 nonzeros
Warning: Numeric variable name in LP file ('4abz_symport_trans') - often the result
         of a constant term in the left-hand side of a constraint.

Read LP format model from file /tmp/tmpqhpw0rzr.lp
Reading time = 0.00 seconds
: 542 rows, 1308 columns, 5686 nonzeros
Warning: Numeric variable name in LP file ('4abz_symport_trans') - often the result
         of a constant term in the left-hand side of a constraint.

Read LP format model from file /tmp/tmp8igkuy_c.lp
Reading time = 0.00 seconds
: 542 rows, 1308 columns, 5686 nonzeros
Warning: Numeric variable name in LP file ('4abz_symport_trans') - often the result
         of a constant term in the left-hand side of a constraint.

Read LP format model from file /tmp/tmpdijv8maa.lp
Reading time = 0.00 seconds
: 542 rows, 1308 columns, 5686 nonzeros
Warning: Numeric variable name in LP file ('4abz_symport_trans') - often the result
         of a constant term in the left-hand side of a constraint.

Read LP format model from file /tmp/tmp4jh8ai42.lp
Reading time = 0.00 seconds
: 542 rows, 1308 columns, 5686 nonzeros
Warning: Numeric variable name in LP file ('4abz_symport_trans') - often the result
         of a constant term in the left-hand side of a constraint.

Read LP format model from file /tmp/tmppybybkm6.lp
Reading time = 0.00 seconds
: 542 rows, 1308 columns, 5686 nonzeros
Warning: Numeric variable name in LP file ('4abz_symport_trans') - often the result
         of a constant term in the left-hand side of a constraint.

Read LP format model from file /tmp/tmpkg79470t.lp
Reading time = 0.00 seconds
: 542 rows, 1308 columns, 5686 nonzeros
Warning: Numeric variable name in LP file ('4abz_symport_trans') - often the result
         of a constant term in the left-hand side of a constraint.

Read LP format model from file /tmp/tmp3ertowdg.lp
Reading time = 0.00 seconds
: 542 rows, 1308 columns, 5686 nonzeros
Warning: Numeric variable name in LP file ('4abz_symport_trans') - often the result
         of a constant term in the left-hand side of a constraint.

Read LP format model from file /tmp/tmpubv1qike.lp
Reading time = 0.00 seconds
: 542 rows, 1308 columns, 5686 nonzeros
Warning: Numeric variable name in LP file ('4abz_symport_trans') - often the result
         of a constant term in the left-hand side of a constraint.

Read LP format model from file /tmp/tmpb9rb7bb_.lp
Reading time = 0.00 seconds
: 542 rows, 1308 columns, 5686 nonzeros
Warning: Numeric variable name in LP file ('4abz_symport_trans') - often the result
         of a constant term in the left-hand side of a constraint.

Read LP format model from file /tmp/tmpo93add6_.lp
Reading time = 0.00 seconds
: 542 rows, 1308 columns, 5686 nonzeros
Warning: Numeric variable name in LP file ('4abz_symport_trans') - often the result
         of a constant term in the left-hand side of a constraint.

Read LP format model from file /tmp/tmp2dfjczgw.lp
Reading time = 0.00 seconds
: 542 rows, 1308 columns, 5686 nonzeros
Warning: Numeric variable name in LP file ('4abz_symport_trans') - often the result
         of a constant term in the left-hand side of a constraint.

Read LP format model from file /tmp/tmpl9aswm6l.lp
Reading time = 0.00 seconds
: 542 rows, 1308 columns, 5686 nonzeros
Warning: Numeric variable name in LP file ('4abz_symport_trans') - often the result
         of a constant term in the left-hand side of a constraint.

Read LP format model from file /tmp/tmp_s3tgv2b.lp
Reading time = 0.00 seconds
: 542 rows, 1308 columns, 5686 nonzeros
Warning: Numeric variable name in LP file ('4abz_symport_trans') - often the result
         of a constant term in the left-hand side of a constraint.

Read LP format model from file /tmp/tmp26k8ra8a.lp
Reading time = 0.00 seconds
: 542 rows, 1308 columns, 5686 nonzeros
Warning: Numeric variable name in LP file ('4abz_symport_trans') - often the result
         of a constant term in the left-hand side of a constraint.

Read LP format model from file /tmp/tmp374vdywt.lp
Reading time = 0.00 seconds
: 542 rows, 1308 columns, 5686 nonzeros
Warning: Numeric variable name in LP file ('4abz_symport_trans') - often the result
         of a constant term in the left-hand side of a constraint.

Read LP format model from file /tmp/tmp5yssrbvl.lp
Reading time = 0.00 seconds
: 542 rows, 1308 columns, 5686 nonzeros
Warning: Numeric variable name in LP file ('4abz_symport_trans') - often the result
         of a constant term in the left-hand side of a constraint.

Read LP format model from file /tmp/tmp10hvh4u7.lp
Reading time = 0.00 seconds
: 542 rows, 1308 columns, 5686 nonzeros
Warning: Numeric variable name in LP file ('4abz_symport_trans') - often the result
         of a constant term in the left-hand side of a constraint.

Read LP format model from file /tmp/tmp260s4nda.lp
Reading time = 0.00 seconds
: 542 rows, 1308 columns, 5686 nonzeros
Warning: Numeric variable name in LP file ('4abz_symport_trans') - often the result
         of a constant term in the left-hand side of a constraint.

Read LP format model from file /tmp/tmpg4pzhcqf.lp
Reading time = 0.00 seconds
: 542 rows, 1308 columns, 5686 nonzeros
Warning: Numeric variable name in LP file ('4abz_symport_trans') - often the result
         of a constant term in the left-hand side of a constraint.

Read LP format model from file /tmp/tmptfxwlogu.lp
Reading time = 0.00 seconds
: 542 rows, 1308 columns, 5686 nonzeros
Warning: Numeric variable name in LP file ('4abz_symport_trans') - often the result
         of a constant term in the left-hand side of a constraint.

Read LP format model from file /tmp/tmprfi4dsz6.lp
Reading time = 0.00 seconds
: 542 rows, 1308 columns, 5686 nonzeros
Warning: Numeric variable name in LP file ('4abz_symport_trans') - often the result
         of a constant term in the left-hand side of a constraint.

Read LP format model from file /tmp/tmpy95pemla.lp
Reading time = 0.00 seconds
: 542 rows, 1308 columns, 5686 nonzeros
Warning: Numeric variable name in LP file ('4abz_symport_trans') - often the result
         of a constant term in the left-hand side of a constraint.

Read LP format model from file /tmp/tmplabshcdm.lp
Reading time = 0.00 seconds
: 542 rows, 1308 columns, 5686 nonzeros
Warning: Numeric variable name in LP file ('4abz_symport_trans') - often the result
         of a constant term in the left-hand side of a constraint.

Read LP format model from file /tmp/tmpbbklcjz2.lp
Reading time = 0.00 seconds
: 542 rows, 1308 columns, 5686 nonzeros
Warning: Numeric variable name in LP file ('4abz_symport_trans') - often the result
         of a constant term in the left-hand side of a constraint.

Read LP format model from file /tmp/tmpi81fut4n.lp
Reading time = 0.00 seconds
: 542 rows, 1308 columns, 5686 nonzeros
Warning: Numeric variable name in LP file ('4abz_symport_trans') - often the result
         of a constant term in the left-hand side of a constraint.

Read LP format model from file /tmp/tmpd_tn7qqs.lp
Reading time = 0.00 seconds
: 542 rows, 1308 columns, 5686 nonzeros

Gurobi 8.1.1 (linux64, Python) logging started Fri Oct 25 14:46:55 2019

Academic license - for non-commercial use only
Warning: Numeric variable name in LP file ('4abz_symport_trans') - often the result
         of a constant term in the left-hand side of a constraint.

Read LP format model from file /tmp/tmph0by73ji.lp
Reading time = 0.00 seconds
: 542 rows, 1308 columns, 5686 nonzeros
Warning: Numeric variable name in LP file ('4abz_symport_trans') - often the result
         of a constant term in the left-hand side of a constraint.

Read LP format model from file /tmp/tmpa4c744hi.lp
Reading time = 0.00 seconds
: 542 rows, 1308 columns, 5686 nonzeros
Warning: Numeric variable name in LP file ('4abz_symport_trans') - often the result
         of a constant term in the left-hand side of a constraint.

Read LP format model from file /tmp/tmpmymf1j1j.lp
Reading time = 0.00 seconds
: 542 rows, 1308 columns, 5686 nonzeros
Warning: Numeric variable name in LP file ('4abz_symport_trans') - often the result
         of a constant term in the left-hand side of a constraint.

Read LP format model from file /tmp/tmp82213k_0.lp
Reading time = 0.00 seconds
: 542 rows, 1308 columns, 5686 nonzeros
Warning: Numeric variable name in LP file ('4abz_symport_trans') - often the result
         of a constant term in the left-hand side of a constraint.

Read LP format model from file /tmp/tmpms4m_jzz.lp
Reading time = 0.00 seconds
: 542 rows, 1308 columns, 5686 nonzeros
Warning: Numeric variable name in LP file ('4abz_symport_trans') - often the result
         of a constant term in the left-hand side of a constraint.

Read LP format model from file /tmp/tmp75b0w52f.lp
Reading time = 0.00 seconds
: 542 rows, 1308 columns, 5686 nonzeros
Warning: Numeric variable name in LP file ('4abz_symport_trans') - often the result
         of a constant term in the left-hand side of a constraint.

Read LP format model from file /tmp/tmp3_3672i7.lp
Reading time = 0.00 seconds
: 542 rows, 1308 columns, 5686 nonzeros
Warning: Numeric variable name in LP file ('4abz_symport_trans') - often the result
         of a constant term in the left-hand side of a constraint.

Read LP format model from file /tmp/tmp7zdff_tf.lp
Reading time = 0.00 seconds
: 542 rows, 1308 columns, 5686 nonzeros
Warning: Numeric variable name in LP file ('4abz_symport_trans') - often the result
         of a constant term in the left-hand side of a constraint.

Read LP format model from file /tmp/tmp9es8z756.lp
Reading time = 0.00 seconds
: 542 rows, 1308 columns, 5686 nonzeros

Gurobi 8.1.1 (linux64, Python) logging started Fri Oct 25 14:47:08 2019

Academic license - for non-commercial use only

Gurobi 8.1.1 (linux64, Python) logging started Fri Oct 25 14:48:09 2019

Academic license - for non-commercial use only

Gurobi 8.1.1 (linux64, Python) logging started Fri Oct 25 14:50:23 2019

Academic license - for non-commercial use only

Gurobi 8.1.1 (linux64, Python) logging started Fri 25 Oct 2019 02:56:14 PM CDT

Academic license - for non-commercial use only

Gurobi 8.1.1 (linux64, Python) logging started Fri 25 Oct 2019 02:56:29 PM CDT

Academic license - for non-commercial use only

Gurobi 8.1.1 (linux64, Python) logging started Fri 25 Oct 2019 02:58:37 PM CDT

Academic license - for non-commercial use only

Gurobi 8.1.1 (linux64, Python) logging started Fri 25 Oct 2019 03:01:35 PM CDT

Academic license - for non-commercial use only

Gurobi 8.1.1 (linux64, Python) logging started Fri 25 Oct 2019 03:03:08 PM CDT

Academic license - for non-commercial use only

Gurobi 8.1.1 (linux64, Python) logging started Fri 25 Oct 2019 03:03:25 PM CDT

Academic license - for non-commercial use only

Gurobi 8.1.1 (linux64, Python) logging started Fri 25 Oct 2019 03:03:41 PM CDT

Academic license - for non-commercial use only

Gurobi 8.1.1 (linux64, Python) logging started Fri Oct 25 15:07:02 2019

Academic license - for non-commercial use only

Gurobi 8.1.1 (linux64, Python) logging started Fri 25 Oct 2019 03:07:05 PM CDT

Academic license - for non-commercial use only

Gurobi 8.1.1 (linux64, Python) logging started Fri 25 Oct 2019 03:08:38 PM CDT

Academic license - for non-commercial use only

Gurobi 8.1.1 (linux64, Python) logging started Fri 25 Oct 2019 03:09:15 PM CDT

Academic license - for non-commercial use only

Gurobi 8.1.1 (linux64, Python) logging started Fri 25 Oct 2019 03:10:05 PM CDT

Academic license - for non-commercial use only

Gurobi 8.1.1 (linux64, Python) logging started Fri 25 Oct 2019 03:10:26 PM CDT

Academic license - for non-commercial use only

Gurobi 8.1.1 (linux64, Python) logging started Fri 25 Oct 2019 03:49:23 PM CDT

Academic license - for non-commercial use only

Gurobi 8.1.1 (linux64, Python) logging started Fri 25 Oct 2019 03:49:43 PM CDT

Academic license - for non-commercial use only

Gurobi 8.1.1 (linux64, Python) logging started Fri 25 Oct 2019 03:56:52 PM CDT

Academic license - for non-commercial use only

Gurobi 8.1.1 (linux64, Python) logging started Fri 25 Oct 2019 04:02:00 PM CDT

Academic license - for non-commercial use only

Gurobi 8.1.1 (linux64, Python) logging started Fri 25 Oct 2019 04:08:40 PM CDT

Academic license - for non-commercial use only

Gurobi 8.1.1 (linux64, Python) logging started Fri 25 Oct 2019 04:09:09 PM CDT

Academic license - for non-commercial use only

Gurobi 8.1.1 (linux64, Python) logging started Fri 25 Oct 2019 04:56:30 PM CDT

Academic license - for non-commercial use only

Gurobi 8.1.1 (linux64, Python) logging started Fri 25 Oct 2019 04:57:24 PM CDT

Academic license - for non-commercial use only

Gurobi 8.1.1 (linux64, Python) logging started Fri 25 Oct 2019 04:57:36 PM CDT

Academic license - for non-commercial use only

Gurobi 8.1.1 (linux64, Python) logging started Fri 25 Oct 2019 04:57:47 PM CDT

Academic license - for non-commercial use only

Gurobi 8.1.1 (linux64, Python) logging started Fri 25 Oct 2019 04:58:01 PM CDT

Academic license - for non-commercial use only

Gurobi 8.1.1 (linux64, Python) logging started Fri 25 Oct 2019 04:58:08 PM CDT

Academic license - for non-commercial use only

Gurobi 8.1.1 (linux64, Python) logging started Fri 25 Oct 2019 05:01:08 PM CDT

Academic license - for non-commercial use only

Gurobi 8.1.1 (linux64, Python) logging started Fri 25 Oct 2019 05:02:06 PM CDT

Academic license - for non-commercial use only

Gurobi 8.1.1 (linux64, Python) logging started Fri 25 Oct 2019 05:02:20 PM CDT

Academic license - for non-commercial use only

Gurobi 8.1.1 (linux64, Python) logging started Fri 25 Oct 2019 05:02:32 PM CDT

Academic license - for non-commercial use only

Gurobi 8.1.1 (linux64, Python) logging started Fri 25 Oct 2019 05:02:49 PM CDT

Academic license - for non-commercial use only

Gurobi 8.1.1 (mac64, Python) logging started Sat Oct 26 17:31:23 2019

Academic license - for non-commercial use only

Gurobi 8.1.1 (mac64, Python) logging started Sat Oct 26 17:39:06 2019

Academic license - for non-commercial use only

Gurobi 8.1.1 (mac64, Python) logging started Sat Oct 26 17:39:47 2019

Academic license - for non-commercial use only

Gurobi 8.1.1 (mac64, Python) logging started Sat Oct 26 17:40:06 2019

Academic license - for non-commercial use only

Gurobi 8.1.1 (mac64, Python) logging started Sat Oct 26 17:40:35 2019

Academic license - for non-commercial use only

Gurobi 8.1.1 (mac64, Python) logging started Sat Oct 26 17:46:39 2019

Academic license - for non-commercial use only

Gurobi 8.1.1 (mac64, Python) logging started Sat Oct 26 17:49:07 2019

Academic license - for non-commercial use only

Gurobi 8.1.1 (mac64, Python) logging started Sat Oct 26 17:49:21 2019

Academic license - for non-commercial use only

Gurobi 8.1.1 (mac64, Python) logging started Sat Oct 26 17:58:32 2019

Academic license - for non-commercial use only

Gurobi 8.1.1 (mac64, Python) logging started Sat Oct 26 17:59:08 2019

Academic license - for non-commercial use only

Gurobi 8.1.1 (mac64, Python) logging started Sat Oct 26 17:59:20 2019

Academic license - for non-commercial use only

Gurobi 8.1.1 (mac64, Python) logging started Sat Oct 26 18:00:14 2019

Academic license - for non-commercial use only

Gurobi 8.1.1 (mac64, Python) logging started Sat Oct 26 18:03:53 2019

Academic license - for non-commercial use only

Gurobi 8.1.1 (mac64, Python) logging started Sat Oct 26 18:16:15 2019

Academic license - for non-commercial use only

Gurobi 8.1.1 (mac64, Python) logging started Sat Oct 26 18:16:49 2019

Academic license - for non-commercial use only

Gurobi 8.1.1 (mac64, Python) logging started Sat Oct 26 18:31:42 2019

Academic license - for non-commercial use only

Gurobi 8.1.1 (mac64, Python) logging started Sat Oct 26 18:32:35 2019

Academic license - for non-commercial use only

Gurobi 8.1.1 (mac64, Python) logging started Sat Oct 26 18:33:07 2019

Academic license - for non-commercial use only

Gurobi 8.1.1 (mac64, Python) logging started Sat Oct 26 18:35:02 2019

Academic license - for non-commercial use only

Gurobi 8.1.1 (mac64, Python) logging started Sat Oct 26 18:35:37 2019

Academic license - for non-commercial use only

Gurobi 8.1.1 (mac64, Python) logging started Sun Oct 27 18:09:30 2019

Academic license - for non-commercial use only

Gurobi 8.1.1 (mac64, Python) logging started Sun Oct 27 18:09:48 2019

Academic license - for non-commercial use only

Gurobi 8.1.1 (mac64, Python) logging started Sun Oct 27 18:10:12 2019

Academic license - for non-commercial use only

Gurobi 8.1.1 (mac64, Python) logging started Sun Oct 27 18:13:08 2019

Academic license - for non-commercial use only

Gurobi 8.1.1 (mac64, Python) logging started Sun Oct 27 18:17:34 2019

Academic license - for non-commercial use only

Gurobi 8.1.1 (mac64, Python) logging started Mon Oct 28 00:40:27 2019

Academic license - for non-commercial use only

Gurobi 8.1.1 (mac64, Python) logging started Mon Oct 28 00:45:18 2019

Academic license - for non-commercial use only

Gurobi 8.1.1 (mac64, Python) logging started Mon Oct 28 00:59:36 2019

Academic license - for non-commercial use only

Gurobi 8.1.1 (mac64, Python) logging started Mon Oct 28 00:59:51 2019

Academic license - for non-commercial use only

Gurobi 8.1.1 (mac64, Python) logging started Mon Oct 28 01:01:04 2019

Academic license - for non-commercial use only

Gurobi 8.1.1 (mac64, Python) logging started Mon Oct 28 01:01:17 2019

Academic license - for non-commercial use only

Gurobi 8.1.1 (mac64, Python) logging started Mon Oct 28 01:01:41 2019

Academic license - for non-commercial use only

Gurobi 8.1.1 (mac64, Python) logging started Mon Oct 28 01:02:04 2019

Academic license - for non-commercial use only

Gurobi 8.1.1 (mac64, Python) logging started Mon Oct 28 01:03:27 2019

Academic license - for non-commercial use only

Gurobi 8.1.1 (mac64, Python) logging started Mon Oct 28 01:04:41 2019

Academic license - for non-commercial use only

Gurobi 8.1.1 (mac64, Python) logging started Mon Oct 28 01:05:19 2019

Academic license - for non-commercial use only

Gurobi 8.1.1 (mac64, Python) logging started Mon Oct 28 01:06:45 2019

Academic license - for non-commercial use only

Gurobi 8.1.1 (mac64, Python) logging started Mon Oct 28 01:07:20 2019

Academic license - for non-commercial use only

Gurobi 8.1.1 (mac64, Python) logging started Mon Oct 28 01:07:29 2019

Academic license - for non-commercial use only

Gurobi 8.1.1 (mac64, Python) logging started Mon Oct 28 01:07:57 2019

Academic license - for non-commercial use only
